unsat
( c10
  c102
  c108
  c111
  c114
  c117
  c118
  c119
  c120
  c125
  c126
  c134
  c135
  c136
  c137
  c138
  c139
  c140
  c144
  c146
  c148
  c150
  c151
  c152
  c158
  c159
  c160
  c161
  c162
  c171
  c172
  c18
  c180
  c20
  c23
  c28
  c30
  c37
  c41
  c42
  c44
  c50
  c52
  c53
  c54
  c55
  c62
  c63
  c64
  c65
  c66
  c69
  c70
  c76
  c79
  c82
  c85
  c86
  c87
  c88
  c94
  c95
  c96
  c97
  c98 )
